Ordonnancement/plne/source/glpk_resultat/2job/2job_13.sol
Problem:    glpsolRcpsp
Rows:       62
Columns:    19 (18 integer, 18 binary)
Non-zeros:  193
Status:     INTEGER OPTIMAL
Objective:  obj = 9 (MINimum)

   No.   Row name        Activity     Lower bound   Upper bound
------ ------------    ------------- ------------- -------------
     1 periode[1]                  5             5             = 
     2 periode[2]                  4             4             = 
     3 complet[1,1]                5                           5 
     4 complet[1,2]                5                           5 
     5 complet[1,3]                5                           5 
     6 complet[1,4]               -1                           5 
     7 complet[1,5]                3                           5 
     8 complet[1,6]                2                           5 
     9 complet[1,7]                1                           5 
    10 complet[2,1]                2                           4 
    11 complet[2,2]                1                           4 
    12 complet[2,3]                0                           4 
    13 complet[2,4]                4                           4 
    14 complet[2,5]                0                           4 
    15 complet[2,6]                0                           4 
    16 complet[2,7]                0                           4 
    17 cmax[1,1]                   9            -0               
    18 cmax[1,2]                   9            -0               
    19 cmax[1,3]                   9            -0               
    20 cmax[1,4]                   9            -0               
    21 cmax[1,5]                   4            -0               
    22 cmax[1,6]                   3            -0               
    23 cmax[1,7]                   2            -0               
    24 cmax[1,8]                   1            -0               
    25 cmax[1,9]                   0            -0               
    26 cmax[2,1]                   8            -0               
    27 cmax[2,2]                   7            -0               
    28 cmax[2,3]                   6            -0               
    29 cmax[2,4]                   5            -0               
    30 cmax[2,5]                   9            -0               
    31 cmax[2,6]                   9            -0               
    32 cmax[2,7]                   9            -0               
    33 cmax[2,8]                   9            -0               
    34 cmax[2,9]                   9            -0               
    35 ressource[1,1]
                                   4                           5 
    36 ressource[1,2]
                                   4                           5 
    37 ressource[1,3]
                                   4                           5 
    38 ressource[1,4]
                                   4                           5 
    39 ressource[1,5]
                                   2                           5 
    40 ressource[1,6]
                                   2                           5 
    41 ressource[1,7]
                                   2                           5 
    42 ressource[1,8]
                                   2                           5 
    43 ressource[1,9]
                                   2                           5 
    44 ressource[2,1]
                                   5                          12 
    45 ressource[2,2]
                                   5                          12 
    46 ressource[2,3]
                                   5                          12 
    47 ressource[2,4]
                                   5                          12 
    48 ressource[2,5]
                                   2                          12 
    49 ressource[2,6]
                                   2                          12 
    50 ressource[2,7]
                                   2                          12 
    51 ressource[2,8]
                                   2                          12 
    52 ressource[2,9]
                                   2                          12 
    53 ressource[3,1]
                                   8                          16 
    54 ressource[3,2]
                                   8                          16 
    55 ressource[3,3]
                                   8                          16 
    56 ressource[3,4]
                                   8                          16 
    57 ressource[3,5]
                                  10                          16 
    58 ressource[3,6]
                                  10                          16 
    59 ressource[3,7]
                                  10                          16 
    60 ressource[3,8]
                                  10                          16 
    61 ressource[3,9]
                                  10                          16 
    62 obj                         9                             

   No. Column name       Activity     Lower bound   Upper bound
------ ------------    ------------- ------------- -------------
     1 x[1,1]       *              0             0             1 
     2 x[1,2]       *              0             0             1 
     3 x[1,3]       *              0             0             1 
     4 x[1,4]       *              0             0             1 
     5 x[1,5]       *              1             0             1 
     6 x[1,6]       *              1             0             1 
     7 x[1,7]       *              1             0             1 
     8 x[1,8]       *              1             0             1 
     9 x[1,9]       *              1             0             1 
    10 x[2,1]       *              1             0             1 
    11 x[2,2]       *              1             0             1 
    12 x[2,3]       *              1             0             1 
    13 x[2,4]       *              1             0             1 
    14 x[2,5]       *              0             0             1 
    15 x[2,6]       *              0             0             1 
    16 x[2,7]       *              0             0             1 
    17 x[2,8]       *              0             0             1 
    18 x[2,9]       *              0             0             1 
    19 z                           9                             

Integer feasibility conditions:

KKT.PE: max.abs.err = 0.00e+00 on row 0
        max.rel.err = 0.00e+00 on row 0
        High quality

KKT.PB: max.abs.err = 0.00e+00 on row 0
        max.rel.err = 0.00e+00 on row 0
        High quality

End of output
